language ESSENCE' 1.0
$ minion Nodes: 3
$ minion TotalTime: 0.000558
$ Savile Row TotalTime: 0.156
letting x_SetExplicit_tuple2 be [4, 4;int(1..2)]
letting x_SetExplicit_tuple3 be [6, 7;int(1..2)]
letting x_SetExplicit_tuple1 be [2, 2;int(1..2)]
